p cnf 407 1103
1 -2 0
2 -1 0
3 -4 0
4 -3 0
5 -6 0
6 -5 0
7 -8 0
8 -7 0
9 -10 0
10 -9 0
11 -12 0
12 -11 0
13 -14 0
14 -13 0
15 -16 0
16 -15 0
17 -18 0
18 -17 0
19 -20 0
20 -19 0
21 22 0
23 22 0
24 22 0
25 22 0
26 22 0
27 22 0
28 22 0
29 22 0
30 22 0
-31 0
-32 22 -33 0
32 -22 -33 0
33 -22 -32 0
32 22 33 0
-33 0
23 34 0
24 34 0
25 34 0
26 34 0
27 34 0
28 34 0
29 34 0
30 34 0
-35 0
34 -36 -37 0
36 -34 -37 0
37 -34 -36 0
36 34 37 0
-37 0
24 38 0
25 38 0
26 38 0
27 38 0
28 38 0
29 38 0
30 38 0
-39 0
38 -40 -41 0
40 -38 -41 0
41 -38 -40 0
40 38 41 0
-41 0
25 42 0
26 42 0
27 42 0
28 42 0
29 42 0
30 42 0
-43 0
42 -44 -45 0
44 -42 -45 0
45 -42 -44 0
44 42 45 0
-45 0
26 46 0
27 46 0
28 46 0
29 46 0
30 46 0
-47 0
46 -48 -49 0
48 -46 -49 0
49 -46 -48 0
48 46 49 0
-49 0
46 -50 -51 0
50 -46 -51 0
51 -46 -50 0
50 46 51 0
-51 0
46 -52 -53 0
52 -46 -53 0
53 -46 -52 0
52 46 53 0
-53 0
46 -54 -55 0
54 -46 -55 0
55 -46 -54 0
54 46 55 0
-55 0
46 -56 -57 0
56 -46 -57 0
57 -46 -56 0
56 46 57 0
-57 0
58 59 0
60 59 0
61 59 0
62 59 0
63 59 0
64 59 0
65 59 0
66 59 0
67 59 0
68 59 0
-69 0
-70 59 -71 0
70 -59 -71 0
71 -59 -70 0
70 59 71 0
-71 0
60 72 0
61 72 0
62 72 0
63 72 0
64 72 0
65 72 0
66 72 0
67 72 0
68 72 0
-73 0
72 -74 -75 0
74 -72 -75 0
75 -72 -74 0
74 72 75 0
-75 0
61 76 0
62 76 0
63 76 0
64 76 0
65 76 0
66 76 0
67 76 0
68 76 0
-77 0
76 -78 -79 0
78 -76 -79 0
79 -76 -78 0
78 76 79 0
-79 0
62 80 0
63 80 0
64 80 0
65 80 0
66 80 0
67 80 0
68 80 0
-81 0
80 -82 -83 0
82 -80 -83 0
83 -80 -82 0
82 80 83 0
-83 0
63 84 0
64 84 0
65 84 0
66 84 0
67 84 0
68 84 0
-85 0
84 -86 -87 0
86 -84 -87 0
87 -84 -86 0
86 84 87 0
-87 0
64 88 0
65 88 0
66 88 0
67 88 0
68 88 0
-89 0
88 -90 -91 0
90 -88 -91 0
91 -88 -90 0
90 88 91 0
-91 0
65 92 0
66 92 0
67 92 0
68 92 0
-93 0
92 -94 -95 0
94 -92 -95 0
95 -92 -94 0
94 92 95 0
-95 0
92 -96 -97 0
96 -92 -97 0
97 -92 -96 0
96 92 97 0
-97 0
92 -98 -99 0
98 -92 -99 0
99 -92 -98 0
98 92 99 0
-99 0
92 -100 -101 0
100 -92 -101 0
101 -92 -100 0
100 92 101 0
-101 0
102 103 0
104 103 0
105 103 0
106 103 0
107 103 0
108 103 0
109 103 0
110 103 0
111 103 0
112 103 0
113 103 0
-114 0
-115 103 -116 0
115 -103 -116 0
116 -103 -115 0
115 103 116 0
-116 0
104 117 0
105 117 0
106 117 0
107 117 0
108 117 0
109 117 0
110 117 0
111 117 0
112 117 0
113 117 0
-118 0
117 -119 -120 0
119 -117 -120 0
120 -117 -119 0
119 117 120 0
-120 0
105 121 0
106 121 0
107 121 0
108 121 0
109 121 0
110 121 0
111 121 0
112 121 0
113 121 0
-122 0
121 -123 -124 0
123 -121 -124 0
124 -121 -123 0
123 121 124 0
-124 0
106 125 0
107 125 0
108 125 0
109 125 0
110 125 0
111 125 0
112 125 0
113 125 0
-126 0
125 -127 -128 0
127 -125 -128 0
128 -125 -127 0
127 125 128 0
-128 0
107 129 0
108 129 0
109 129 0
110 129 0
111 129 0
112 129 0
113 129 0
-130 0
129 -131 -132 0
131 -129 -132 0
132 -129 -131 0
131 129 132 0
-132 0
108 133 0
109 133 0
110 133 0
111 133 0
112 133 0
113 133 0
-134 0
133 -135 -136 0
135 -133 -136 0
136 -133 -135 0
135 133 136 0
-136 0
133 -137 -138 0
137 -133 -138 0
138 -133 -137 0
137 133 138 0
-138 0
133 -139 -140 0
139 -133 -140 0
140 -133 -139 0
139 133 140 0
-140 0
133 -141 -142 0
141 -133 -142 0
142 -133 -141 0
141 133 142 0
-142 0
133 -143 -144 0
143 -133 -144 0
144 -133 -143 0
143 133 144 0
-144 0
133 -145 -146 0
145 -133 -146 0
146 -133 -145 0
145 133 146 0
-146 0
147 148 0
149 148 0
150 148 0
151 148 0
152 148 0
153 148 0
154 148 0
155 148 0
156 148 0
-157 0
-158 148 -159 0
158 -148 -159 0
159 -148 -158 0
158 148 159 0
-159 0
149 160 0
150 160 0
151 160 0
152 160 0
153 160 0
154 160 0
155 160 0
156 160 0
-161 0
160 -162 -163 0
162 -160 -163 0
163 -160 -162 0
162 160 163 0
-163 0
150 164 0
151 164 0
152 164 0
153 164 0
154 164 0
155 164 0
156 164 0
-165 0
164 -166 -167 0
166 -164 -167 0
167 -164 -166 0
166 164 167 0
-167 0
151 168 0
152 168 0
153 168 0
154 168 0
155 168 0
156 168 0
-169 0
168 -170 -171 0
170 -168 -171 0
171 -168 -170 0
170 168 171 0
-171 0
152 172 0
153 172 0
154 172 0
155 172 0
156 172 0
-173 0
172 -174 -175 0
174 -172 -175 0
175 -172 -174 0
174 172 175 0
-175 0
172 -176 -177 0
176 -172 -177 0
177 -172 -176 0
176 172 177 0
-177 0
172 -178 -179 0
178 -172 -179 0
179 -172 -178 0
178 172 179 0
-179 0
172 -180 -181 0
180 -172 -181 0
181 -172 -180 0
180 172 181 0
-181 0
172 -182 -183 0
182 -172 -183 0
183 -172 -182 0
182 172 183 0
-183 0
184 185 0
186 185 0
187 185 0
188 185 0
189 185 0
190 185 0
-191 0
-192 185 -193 0
192 -185 -193 0
193 -185 -192 0
192 185 193 0
-193 0
186 194 0
187 194 0
188 194 0
189 194 0
190 194 0
-195 0
194 -196 -197 0
196 -194 -197 0
197 -194 -196 0
196 194 197 0
-197 0
194 -198 -199 0
198 -194 -199 0
199 -194 -198 0
198 194 199 0
-199 0
194 -200 -201 0
200 -194 -201 0
201 -194 -200 0
200 194 201 0
-201 0
194 -202 -203 0
202 -194 -203 0
203 -194 -202 0
202 194 203 0
-203 0
194 -204 -205 0
204 -194 -205 0
205 -194 -204 0
204 194 205 0
-205 0
206 207 0
208 207 0
209 207 0
210 207 0
211 207 0
212 207 0
213 207 0
214 207 0
215 207 0
216 207 0
217 207 0
218 207 0
-219 0
-220 207 -221 0
220 -207 -221 0
221 -207 -220 0
220 207 221 0
-221 0
208 222 0
209 222 0
210 222 0
211 222 0
212 222 0
213 222 0
214 222 0
215 222 0
216 222 0
217 222 0
218 222 0
-223 0
222 -224 -225 0
224 -222 -225 0
225 -222 -224 0
224 222 225 0
-225 0
209 226 0
210 226 0
211 226 0
212 226 0
213 226 0
214 226 0
215 226 0
216 226 0
217 226 0
218 226 0
-227 0
226 -228 -229 0
228 -226 -229 0
229 -226 -228 0
228 226 229 0
-229 0
210 230 0
211 230 0
212 230 0
213 230 0
214 230 0
215 230 0
216 230 0
217 230 0
218 230 0
-231 0
230 -232 -233 0
232 -230 -233 0
233 -230 -232 0
232 230 233 0
-233 0
211 234 0
212 234 0
213 234 0
214 234 0
215 234 0
216 234 0
217 234 0
218 234 0
-235 0
234 -236 -237 0
236 -234 -237 0
237 -234 -236 0
236 234 237 0
-237 0
212 238 0
213 238 0
214 238 0
215 238 0
216 238 0
217 238 0
218 238 0
-239 0
238 -240 -241 0
240 -238 -241 0
241 -238 -240 0
240 238 241 0
-241 0
213 242 0
214 242 0
215 242 0
216 242 0
217 242 0
218 242 0
-243 0
242 -244 -245 0
244 -242 -245 0
245 -242 -244 0
244 242 245 0
-245 0
242 -246 -247 0
246 -242 -247 0
247 -242 -246 0
246 242 247 0
-247 0
242 -248 -249 0
248 -242 -249 0
249 -242 -248 0
248 242 249 0
-249 0
242 -250 -251 0
250 -242 -251 0
251 -242 -250 0
250 242 251 0
-251 0
242 -252 -253 0
252 -242 -253 0
253 -242 -252 0
252 242 253 0
-253 0
242 -254 -255 0
254 -242 -255 0
255 -242 -254 0
254 242 255 0
-255 0
256 257 0
258 257 0
259 257 0
260 257 0
261 257 0
262 257 0
263 257 0
-264 0
-265 257 -266 0
265 -257 -266 0
266 -257 -265 0
265 257 266 0
-266 0
258 267 0
259 267 0
260 267 0
261 267 0
262 267 0
263 267 0
-268 0
267 -269 -270 0
269 -267 -270 0
270 -267 -269 0
269 267 270 0
-270 0
259 271 0
260 271 0
261 271 0
262 271 0
263 271 0
-272 0
271 -273 -274 0
273 -271 -274 0
274 -271 -273 0
273 271 274 0
-274 0
260 275 0
261 275 0
262 275 0
263 275 0
-276 0
275 -277 -278 0
277 -275 -278 0
278 -275 -277 0
277 275 278 0
-278 0
261 279 0
262 279 0
263 279 0
-261 -262 -263 -279 0
279 -280 -281 0
280 -279 -281 0
281 -279 -280 0
280 279 281 0
-281 0
262 282 0
263 282 0
-262 -263 -282 0
282 -283 -284 0
283 -282 -284 0
284 -282 -283 0
283 282 284 0
-284 0
282 -285 -286 0
285 -282 -286 0
286 -282 -285 0
285 282 286 0
-286 0
287 288 0
289 288 0
290 288 0
291 288 0
292 288 0
293 288 0
294 288 0
295 288 0
296 288 0
297 288 0
298 288 0
299 288 0
-300 0
-301 288 -302 0
301 -288 -302 0
302 -288 -301 0
301 288 302 0
-302 0
289 303 0
290 303 0
291 303 0
292 303 0
293 303 0
294 303 0
295 303 0
296 303 0
297 303 0
298 303 0
299 303 0
-304 0
303 -305 -306 0
305 -303 -306 0
306 -303 -305 0
305 303 306 0
-306 0
290 307 0
291 307 0
292 307 0
293 307 0
294 307 0
295 307 0
296 307 0
297 307 0
298 307 0
299 307 0
-308 0
307 -309 -310 0
309 -307 -310 0
310 -307 -309 0
309 307 310 0
-310 0
291 311 0
292 311 0
293 311 0
294 311 0
295 311 0
296 311 0
297 311 0
298 311 0
299 311 0
-312 0
311 -313 -314 0
313 -311 -314 0
314 -311 -313 0
313 311 314 0
-314 0
292 315 0
293 315 0
294 315 0
295 315 0
296 315 0
297 315 0
298 315 0
299 315 0
-316 0
315 -317 -318 0
317 -315 -318 0
318 -315 -317 0
317 315 318 0
-318 0
293 319 0
294 319 0
295 319 0
296 319 0
297 319 0
298 319 0
299 319 0
-320 0
319 -321 -322 0
321 -319 -322 0
322 -319 -321 0
321 319 322 0
-322 0
294 323 0
295 323 0
296 323 0
297 323 0
298 323 0
299 323 0
-324 0
323 -325 -326 0
325 -323 -326 0
326 -323 -325 0
325 323 326 0
-326 0
323 -327 -328 0
327 -323 -328 0
328 -323 -327 0
327 323 328 0
-328 0
323 -329 -330 0
329 -323 -330 0
330 -323 -329 0
329 323 330 0
-330 0
323 -331 -332 0
331 -323 -332 0
332 -323 -331 0
331 323 332 0
-332 0
323 -333 -334 0
333 -323 -334 0
334 -323 -333 0
333 323 334 0
-334 0
323 -335 -336 0
335 -323 -336 0
336 -323 -335 0
335 323 336 0
-336 0
337 338 0
339 338 0
340 338 0
341 338 0
342 338 0
343 338 0
344 338 0
345 338 0
-346 0
-347 338 -348 0
347 -338 -348 0
348 -338 -347 0
347 338 348 0
-348 0
339 349 0
340 349 0
341 349 0
342 349 0
343 349 0
344 349 0
345 349 0
-350 0
349 -351 -352 0
351 -349 -352 0
352 -349 -351 0
351 349 352 0
-352 0
340 353 0
341 353 0
342 353 0
343 353 0
344 353 0
345 353 0
-354 0
353 -355 -356 0
355 -353 -356 0
356 -353 -355 0
355 353 356 0
-356 0
341 357 0
342 357 0
343 357 0
344 357 0
345 357 0
-358 0
357 -359 -360 0
359 -357 -360 0
360 -357 -359 0
359 357 360 0
-360 0
342 361 0
343 361 0
344 361 0
345 361 0
-362 0
361 -363 -364 0
363 -361 -364 0
364 -361 -363 0
363 361 364 0
-364 0
361 -365 -366 0
365 -361 -366 0
366 -361 -365 0
365 361 366 0
-366 0
361 -367 -368 0
367 -361 -368 0
368 -361 -367 0
367 361 368 0
-368 0
361 -369 -370 0
369 -361 -370 0
370 -361 -369 0
369 361 370 0
-370 0
371 372 0
373 372 0
374 372 0
375 372 0
376 372 0
377 372 0
378 372 0
379 372 0
380 372 0
-381 0
-382 372 -383 0
382 -372 -383 0
383 -372 -382 0
382 372 383 0
-383 0
373 384 0
374 384 0
375 384 0
376 384 0
377 384 0
378 384 0
379 384 0
380 384 0
-385 0
384 -386 -387 0
386 -384 -387 0
387 -384 -386 0
386 384 387 0
-387 0
374 388 0
375 388 0
376 388 0
377 388 0
378 388 0
379 388 0
380 388 0
-389 0
388 -390 -391 0
390 -388 -391 0
391 -388 -390 0
390 388 391 0
-391 0
375 392 0
376 392 0
377 392 0
378 392 0
379 392 0
380 392 0
-393 0
392 -394 -395 0
394 -392 -395 0
395 -392 -394 0
394 392 395 0
-395 0
376 396 0
377 396 0
378 396 0
379 396 0
380 396 0
-397 0
396 -398 -399 0
398 -396 -399 0
399 -396 -398 0
398 396 399 0
-399 0
396 -400 -401 0
400 -396 -401 0
401 -396 -400 0
400 396 401 0
-401 0
396 -402 -403 0
402 -396 -403 0
403 -396 -402 0
402 396 403 0
-403 0
396 -404 -405 0
404 -396 -405 0
405 -396 -404 0
404 396 405 0
-405 0
396 -406 -407 0
406 -396 -407 0
407 -396 -406 0
406 396 407 0
-407 0
1 0
3 0
5 0
7 0
9 0
11 0
13 0
15 0
17 0
19 0
-32 0
-70 0
-115 0
-158 0
-192 0
-220 0
-265 0
-301 0
-347 0
-382 0
2 -4 0
4 -2 0
2 -6 0
6 -2 0
2 -8 0
8 -2 0
2 -10 0
10 -2 0
2 -12 0
12 -2 0
2 -14 0
14 -2 0
2 -16 0
16 -2 0
2 -18 0
18 -2 0
2 -20 0
20 -2 0
4 -6 0
6 -4 0
4 -8 0
8 -4 0
4 -10 0
10 -4 0
4 -12 0
12 -4 0
4 -14 0
14 -4 0
4 -16 0
16 -4 0
4 -18 0
18 -4 0
4 -20 0
20 -4 0
6 -8 0
8 -6 0
6 -10 0
10 -6 0
6 -12 0
12 -6 0
6 -14 0
14 -6 0
6 -16 0
16 -6 0
6 -18 0
18 -6 0
6 -20 0
20 -6 0
8 -10 0
10 -8 0
8 -12 0
12 -8 0
8 -14 0
14 -8 0
8 -16 0
16 -8 0
8 -18 0
18 -8 0
8 -20 0
20 -8 0
10 -12 0
12 -10 0
10 -14 0
14 -10 0
10 -16 0
16 -10 0
10 -18 0
18 -10 0
10 -20 0
20 -10 0
12 -14 0
14 -12 0
12 -16 0
16 -12 0
12 -18 0
18 -12 0
12 -20 0
20 -12 0
14 -16 0
16 -14 0
14 -18 0
18 -14 0
14 -20 0
20 -14 0
16 -18 0
18 -16 0
16 -20 0
20 -16 0
18 -20 0
20 -18 0
24 -150 0
150 -24 0
25 -151 0
151 -25 0
26 -152 0
152 -26 0
27 -153 0
153 -27 0
28 -154 0
154 -28 0
29 -155 0
155 -29 0
30 -156 0
156 -30 0
24 -374 0
374 -24 0
25 -375 0
375 -25 0
26 -376 0
376 -26 0
27 -377 0
377 -27 0
28 -378 0
378 -28 0
29 -379 0
379 -29 0
30 -380 0
380 -30 0
65 -345 0
345 -65 0
66 -342 0
342 -66 0
67 -343 0
343 -67 0
68 -344 0
344 -68 0
147 -371 0
371 -147 0
149 -373 0
373 -149 0
150 -374 0
374 -150 0
151 -375 0
375 -151 0
152 -376 0
376 -152 0
153 -377 0
377 -153 0
154 -378 0
378 -154 0
155 -379 0
379 -155 0
156 -380 0
380 -156 0
